Optimal - objective value 4.00000000
     11 x_0_11                      1                       0
     14 x_1_0                       1                       0
     40 x_2_12                      1                       0
     42 x_3_0                       1                       0
     68 x_4_12                      1                       0
     82 x_5_12                      1                       1
     85 x_6_1                       1                       0
     99 x_7_1                       1                       0
    113 x_8_1                       1                       0
    127 x_9_1                       1                       0
    151 x_10_11                     1                       0
    154 x_11_0                      1                       0
    179 x_12_11                     1                       0
    183 x_13_1                      1                       0
    196 y_0                         1                       0
    197 y_1                         1                       0
    207 y_11                        1                       0
    208 y_12                        1                       0
